c FILE /home/rafael/Documents/HappySet/MIHS/inputs/happygen/output/graph_d_regular_k5_p0.1_v100_20241127_084038.txt
c SOURCE This is a d-regular graph formed for the happy graph colouring problem.
c DESCRIPTION It was generated using the problem generator of Rhyd Lewis
c
c GRAPH STATS
c Seed                             = -637040836
c Number of Nodes                  = 100
c Number of colours k              = 5
c Number of pre-assignments        = 10
c Degree of all vertices           = 6
c Density                          = 0.0606061
c 
c The degrees of nodes 1 to 100, respectively, are as follows 
c [6, 6, 6, 6, 6, 6, 6, 6, 6, 6, 6, 6, 6, 6, 6, 6, 6, 6, 6, 6, 6, 6, 6, 6, 6, 6, 
c  6, 6, 6, 6, 6, 6, 6, 6, 6, 6, 6, 6, 6, 6, 6, 6, 6, 6, 6, 6, 6, 6, 6, 6, 6, 
c  6, 6, 6, 6, 6, 6, 6, 6, 6, 6, 6, 6, 6, 6, 6, 6, 6, 6, 6, 6, 6, 6, 6, 6, 6, 
c  6, 6, 6, 6, 6, 6, 6, 6, 6, 6, 6, 6, 6, 6, 6, 6, 6, 6, 6, 6, 6, 6, 6, 6] 
c  
p edge 100 300 5
e 1 19
e 1 29
e 1 62
e 1 70
e 1 81
e 1 95
e 2 17
e 2 34
e 2 53
e 2 62
e 2 78
e 2 94
e 3 15
e 3 35
e 3 68
e 3 73
e 3 75
e 3 96
e 4 26
e 4 36
e 4 37
e 4 70
e 4 74
e 4 84
e 5 12
e 5 45
e 5 47
e 5 56
e 5 79
e 5 82
e 6 40
e 6 42
e 6 46
e 6 85
e 6 90
e 6 94
e 7 41
e 7 55
e 7 71
e 7 86
e 7 92
e 7 96
e 8 13
e 8 17
e 8 29
e 8 30
e 8 40
e 8 76
e 9 20
e 9 25
e 9 33
e 9 45
e 9 95
e 9 99
e 10 33
e 10 41
e 10 53
e 10 59
e 10 81
e 10 93
e 11 12
e 11 49
e 11 58
e 11 61
e 11 73
e 11 79
e 12 37
e 12 64
e 12 83
e 12 95
e 13 54
e 13 59
e 13 64
e 13 80
e 13 90
e 14 46
e 14 48
e 14 60
e 14 69
e 14 72
e 14 91
e 15 18
e 15 36
e 15 52
e 15 83
e 15 90
e 16 44
e 16 46
e 16 47
e 16 51
e 16 53
e 16 74
e 17 28
e 17 29
e 17 43
e 17 57
e 18 24
e 18 39
e 18 44
e 18 51
e 18 91
e 19 21
e 19 42
e 19 70
e 19 77
e 19 85
e 20 50
e 20 75
e 20 80
e 20 85
e 20 88
e 21 23
e 21 45
e 21 49
e 21 51
e 21 63
e 22 30
e 22 32
e 22 34
e 22 37
e 22 58
e 22 100
e 23 27
e 23 49
e 23 54
e 23 62
e 23 87
e 24 27
e 24 38
e 24 62
e 24 87
e 24 93
e 25 43
e 25 61
e 25 66
e 25 79
e 25 98
e 26 59
e 26 79
e 26 88
e 26 97
e 26 98
e 27 39
e 27 46
e 27 71
e 27 82
e 28 31
e 28 32
e 28 34
e 28 52
e 28 72
e 29 49
e 29 58
e 29 95
e 30 38
e 30 67
e 30 73
e 30 91
e 31 32
e 31 41
e 31 49
e 31 59
e 31 81
e 32 43
e 32 66
e 32 71
e 33 50
e 33 75
e 33 93
e 33 94
e 34 45
e 34 89
e 34 100
e 35 38
e 35 60
e 35 64
e 35 72
e 35 84
e 36 66
e 36 67
e 36 69
e 36 75
e 37 51
e 37 66
e 37 71
e 38 52
e 38 75
e 38 77
e 39 45
e 39 48
e 39 64
e 39 87
e 40 68
e 40 69
e 40 76
e 40 82
e 41 48
e 41 51
e 41 98
e 42 52
e 42 89
e 42 93
e 42 99
e 43 57
e 43 67
e 43 94
e 44 47
e 44 61
e 44 81
e 44 99
e 45 97
e 46 80
e 46 98
e 47 56
e 47 67
e 47 78
e 48 68
e 48 76
e 48 80
e 49 55
e 50 53
e 50 64
e 50 65
e 50 97
e 51 55
e 52 65
e 52 98
e 53 87
e 53 97
e 54 59
e 54 63
e 54 72
e 54 83
e 55 86
e 55 95
e 55 100
e 56 70
e 56 90
e 56 92
e 56 96
e 57 59
e 57 74
e 57 89
e 57 95
e 58 64
e 58 78
e 58 85
e 60 63
e 60 73
e 60 81
e 60 82
e 61 85
e 61 88
e 61 97
e 62 83
e 62 93
e 63 77
e 63 83
e 63 100
e 65 69
e 65 70
e 65 78
e 65 96
e 66 79
e 66 90
e 67 94
e 67 100
e 68 73
e 68 74
e 68 88
e 69 75
e 69 86
e 70 72
e 71 78
e 71 84
e 72 91
e 73 77
e 74 78
e 74 89
e 76 82
e 76 99
e 76 100
e 77 92
e 77 97
e 79 91
e 80 82
e 80 93
e 81 96
e 83 91
e 84 89
e 84 92
e 84 96
e 85 86
e 86 87
e 86 88
e 87 98
e 88 99
e 89 99
e 90 92
e 92 94
n 1 5
n 22 5
n 24 1
n 28 3
n 38 1
n 44 2
n 49 2
n 50 4
n 59 1
n 72 3
